g3 0 1 0	# problem hatfldg
 25 25 1 0 25	# vars, constraints, objectives, ranges, eqns
 25 0	# nonlinear constraints, objectives
 0 0	# network constraints: nonlinear, linear
 25 0 0	# nonlinear vars in constraints, objectives, both
 0 0 0 1	# linear network variables; functions; arith, flags
 0 0 0 0 0	# discrete variables: binary, integer, nonlinear (b,c,o)
 95 0	# nonzeros in Jacobian, gradients
 0 0	# max name lengths: constraints, variables
 0 0 0 0 0	# common exprs: b,c,o,c1,o1
b
3
3
3
3
3
3
3
3
3
3
3
3
3
3
3
3
3
3
3
3
3
3
3
3
3
x25
0 1
1 1
2 1
3 1
4 1
5 1
6 1
7 1
8 1
9 1
10 1
11 1
12 1
13 1
14 1
15 1
16 1
17 1
18 1
19 1
20 1
21 1
22 1
23 1
24 1
r
4 -1
4 -1
4 -1
4 -1
4 -1
4 -1
4 -1
4 -1
4 -1
4 -1
4 -1
4 -1
4 -1
4 -1
4 -1
4 -1
4 -1
4 -1
4 -1
4 -1
4 -1
4 -1
4 -1
4 -1
4 -1
C0
o2
v1
o1
v0
v2
C1
o2
v2
o1
v1
v3
C2
o2
v3
o1
v2
v4
C3
o2
v4
o1
v3
v5
C4
o2
v5
o1
v4
v6
C5
o2
v6
o1
v5
v7
C6
o2
v7
o1
v6
v8
C7
o2
v8
o1
v7
v9
C8
o2
v9
o1
v8
v10
C9
o2
v10
o1
v9
v11
C10
o2
v11
o1
v10
v12
C11
o2
v12
o1
v11
v13
C12
o2
v13
o1
v12
v14
C13
o2
v14
o1
v13
v15
C14
o2
v15
o1
v14
v16
C15
o2
v16
o1
v15
v17
C16
o2
v17
o1
v16
v18
C17
o2
v18
o1
v17
v19
C18
o2
v19
o1
v18
v20
C19
o2
v20
o1
v19
v21
C20
o2
v21
o1
v20
v22
C21
o2
v22
o1
v21
v23
C22
o2
v23
o1
v22
v24
C23
o16
o2
v0
v1
C24
o2
v23
v24
O0 0
n0
k24
2
5
8
11
14
17
20
23
26
29
32
35
60
63
66
69
72
75
78
81
84
87
90
93
J0 4
0 0
1 1
2 0
12 -1
J1 4
1 0
2 1
3 0
12 -1
J2 4
2 0
3 1
4 0
12 -1
J3 4
3 0
4 1
5 0
12 -1
J4 4
4 0
5 1
6 0
12 -1
J5 4
5 0
6 1
7 0
12 -1
J6 4
6 0
7 1
8 0
12 -1
J7 4
7 0
8 1
9 0
12 -1
J8 4
8 0
9 1
10 0
12 -1
J9 4
9 0
10 1
11 0
12 -1
J10 3
10 0
11 1
12 -1
J11 3
11 0
12 0
13 0
J12 3
12 -1
13 1
14 0
J13 4
12 -1
13 0
14 1
15 0
J14 4
12 -1
14 0
15 1
16 0
J15 4
12 -1
15 0
16 1
17 0
J16 4
12 -1
16 0
17 1
18 0
J17 4
12 -1
17 0
18 1
19 0
J18 4
12 -1
18 0
19 1
20 0
J19 4
12 -1
19 0
20 1
21 0
J20 4
12 -1
20 0
21 1
22 0
J21 4
12 -1
21 0
22 1
23 0
J22 4
12 -1
22 0
23 1
24 0
J23 3
0 1
1 0
12 -1
J24 3
12 -1
23 0
24 1
